
Gurobi 9.1.2 (linux64) logging started Wed Oct 13 02:59:42 2021

Changed value of parameter LogFile to /home/zongzan/dist_dnn_training/MixedMemoryOpt/data/budget_sweep/p32xlarge_VGG16_256_None/ilp_log/ilp_mixed_18893139648.log
   Prev:   Default: 
Changed value of parameter Threads to 32
   Prev: 0  Min: 0  Max: 1024  Default: 0
Changed value of parameter TimeLimit to 3600.0
   Prev: inf  Min: 0.0  Max: inf  Default: inf
Changed value of parameter OptimalityTol to 0.0001
   Prev: 1e-06  Min: 1e-09  Max: 0.01  Default: 1e-06
Parameter IntFeasTol unchanged
   Value: 1e-05  Min: 1e-09  Max: 0.1  Default: 1e-05
Changed value of parameter Presolve to 2
   Prev: -1  Min: -1  Max: 2  Default: -1
Changed value of parameter StartNodeLimit to 10000000
   Prev: -1  Min: -3  Max: 2000000000  Default: -1
Changed value of parameter TimeLimit to 300.0
   Prev: 3600.0  Min: 0.0  Max: inf  Default: inf
Gurobi Optimizer version 9.1.2 build v9.1.2rc0 (linux64)
Thread count: 28 physical cores, 56 logical processors, using up to 32 threads
Optimize a model with 61248 rows, 14040 columns and 577099 nonzeros
Model fingerprint: 0x0e8e0c0e
Variable types: 2025 continuous, 12015 integer (12015 binary)
Coefficient statistics:
  Matrix range     [1e+00, 5e+07]
  Objective range  [4e+00, 2e+02]
  Bounds range     [1e+00, 3e+08]
  RHS range        [1e+00, 3e+08]
Presolve removed 55664 rows and 9558 columns
Presolve time: 1.70s
Presolved: 5584 rows, 4482 columns, 32565 nonzeros
Variable types: 0 continuous, 4482 integer (3479 binary)
Found heuristic solution: objective 19812.609920
Found heuristic solution: objective 12254.071345
Found heuristic solution: objective 5012.0507491
Presolve removed 81 rows and 70 columns
Presolved: 5503 rows, 4412 columns, 32249 nonzeros


Root relaxation: objective 3.101206e+03, 2611 iterations, 0.21 seconds

    Nodes    |    Current Node    |     Objective Bounds      |     Work
 Expl Unexpl |  Obj  Depth IntInf | Incumbent    BestBd   Gap | It/Node Time

     0     0 3101.20616    0  222 5012.05075 3101.20616  38.1%     -    2s
H    0     0                    3177.7669506 3101.20616  2.41%     -    2s
     0     0 3101.20616    0  239 3177.76695 3101.20616  2.41%     -    2s
     0     0 3101.20616    0   15 3177.76695 3101.20616  2.41%     -    3s
H    0     0                    3128.2157516 3101.20616  0.86%     -    3s
     0     0 3101.20616    0   58 3128.21575 3101.20616  0.86%     -    3s
H    0     0                    3101.2061565 3101.20616  0.00%     -    3s
     0     0 3101.20616    0   58 3101.20616 3101.20616  0.00%     -    3s

Cutting planes:
  Cover: 2
  RLT: 1

Explored 1 nodes (10704 simplex iterations) in 3.52 seconds
Thread count was 32 (of 56 available processors)

Solution count 6: 3101.21 3128.22 3177.77 ... 19812.6

Optimal solution found (tolerance 1.00e-04)
Best objective 3.101206156491e+03, best bound 3.101206156491e+03, gap 0.0000%
Changed value of parameter TimeLimit to 3600.0
   Prev: 300.0  Min: 0.0  Max: inf  Default: inf


Restarting solve


Gurobi Optimizer version 9.1.2 build v9.1.2rc0 (linux64)
Thread count: 28 physical cores, 56 logical processors, using up to 32 threads
Optimize a model with 59836 rows, 14040 columns and 575687 nonzeros
Model fingerprint: 0xda3820ab
Variable types: 2025 continuous, 12015 integer (12015 binary)
Coefficient statistics:
  Matrix range     [1e+00, 5e+07]
  Objective range  [4e+00, 2e+02]
  Bounds range     [1e+00, 3e+08]
  RHS range        [1e+00, 3e+08]

MIP start from previous solve produced solution with objective 3101.21 (0.12s)
Loaded MIP start from previous solve with objective 3101.21

Presolve removed 57802 rows and 12291 columns
Presolve time: 2.74s
Presolved: 2034 rows, 1749 columns, 22122 nonzeros
Variable types: 0 continuous, 1749 integer (1748 binary)

Explored 0 nodes (0 simplex iterations) in 2.88 seconds
Thread count was 32 (of 56 available processors)

Solution count 1: 3101.21 

Optimal solution found (tolerance 1.00e-04)
Best objective 3.101206156491e+03, best bound 3.101206156491e+03, gap 0.0000%
